14275 11725 1321
12735 14265 1477
9633 16367 1456
14169 11831 1369
11398 15602 1427
10014 14986 1552
12164 13836 1542
12249 14751 1482
11516 13484 1572
11123 15877 1325
9917 16083 1502
14666 10334 1332
8002 16998 1261
13561 13439 1396
13407 13593 1453
12736 13264 1521
14820 10180 1275
14331 11669 1291
11019 14981 1537
14015 11985 1426
8110 16890 1370
10371 15629 1530
8388 16612 1422
9367 16633 1400
13328 12672 1488
12509 12491 1533
9340 16660 1289
11591 15409 1479
11677 14323 1540
9343 16657 1336
8005 16995 1308
10793 14207 1568
